p cnf 13 27
13 -12 -9 0
13 12 -9 0
-13 8 6 0
-13 8 -4 0
13 -7 5 0
-13 7 3 0
13 -5 -3 0
-12 11 -8 0
12 -11 6 0
-12 11 -2 0
12 10 6 0
-12 -7 -3 0
12 4 3 0
12 -3 -1 0
-10 8 7 0
10 -8 -4 0
-10 -7 4 0
10 6 -5 0
10 -5 2 0
-9 -7 -1 0
9 -5 -3 0
9 5 -2 0
-9 5 2 0
8 -4 -1 0
7 6 1 0
-7 -3 1 0
-5 -4 3 0
